p edge 34 170
e 1 10
e 1 16
e 1 18
e 1 28
e 1 33
e 2 4
e 2 12
e 2 15
e 2 20
e 2 21
e 3 20
e 3 21
e 3 23
e 3 30
e 3 32
e 4 7
e 4 15
e 4 23
e 4 29
e 4 31
e 5 2
e 5 6
e 5 9
e 5 15
e 5 20
e 6 9
e 6 12
e 6 22
e 6 23
e 6 32
e 7 1
e 7 11
e 7 18
e 7 24
e 7 33
e 8 4
e 8 11
e 8 15
e 8 22
e 8 34
e 9 3
e 9 4
e 9 10
e 9 20
e 9 24
e 10 21
e 10 24
e 10 27
e 10 28
e 10 31
e 11 1
e 11 5
e 11 10
e 11 20
e 11 29
e 12 1
e 12 6
e 12 11
e 12 17
e 12 24
e 13 3
e 13 4
e 13 5
e 13 28
e 13 28
e 14 2
e 14 6
e 14 11
e 14 20
e 14 32
e 15 14
e 15 18
e 15 21
e 15 29
e 15 32
e 16 5
e 16 11
e 16 15
e 16 15
e 16 22
e 17 7
e 17 19
e 17 22
e 17 25
e 17 33
e 18 17
e 18 20
e 18 23
e 18 25
e 18 32
e 19 1
e 19 3
e 19 13
e 19 28
e 19 33
e 20 5
e 20 10
e 20 15
e 20 17
e 20 32
e 21 4
e 21 16
e 21 24
e 21 25
e 21 29
e 22 1
e 22 11
e 22 12
e 22 15
e 22 19
e 23 18
e 23 25
e 23 26
e 23 32
e 23 33
e 24 10
e 24 11
e 24 20
e 24 20
e 24 25
e 25 4
e 25 10
e 25 12
e 25 24
e 25 32
e 26 4
e 26 16
e 26 20
e 26 32
e 26 33
e 27 2
e 27 3
e 27 6
e 27 6
e 27 31
e 28 12
e 28 12
e 28 15
e 28 23
e 28 31
e 29 5
e 29 7
e 29 10
e 29 22
e 29 22
e 30 1
e 30 7
e 30 16
e 30 32
e 30 33
e 31 18
e 31 18
e 31 29
e 31 29
e 31 34
e 32 10
e 32 16
e 32 17
e 32 19
e 32 20
e 33 1
e 33 13
e 33 24
e 33 29
e 33 34
e 34 1
e 34 15
e 34 20
e 34 25
e 34 29
